
%FILE DATA:	Soccer Computational Problem for MiniZinc Models	%
%AUTHOR:	Jack Wall	%
%CONTACT:  	116397063@umail.ucc.ie			%
%LAST UPDATE:	03/03/2020, 12:07:43						%
%DESCRIPTION: 	88 games played with 22 games left				%


n=11; %number of teams

%Games to play
games=[|7,2|11,3|6,3|1,4|4,10|11,1|7,9|5,8|3,4|9,8|1,3|9,11|3,2|3,7|6,1|2,10|2,3|4,9|6,11|9,6|6,5|2,8|];

%Initial points
iPoints=[30,16,12,9,26,19,28,28,28,22,22];

%POSITION CONSTRAINTS
% [|teamID, operator, position|...]
% operators index:
%  1 for =  operator
%  2 for >  operator
%  3 for >= operator
%  4 for <  operator
%  5 for <= operator
positionConstraints=[|7,1,1|9,4,3|6,5,3|];